
n_res = 6;
rcap = [70, 78, 1171, 1166, 1250, 1074];
rtype = [1, 1, 2, 2, 2, 2];
n_tasks = 100;
modes =  [{1, 2, 3, 4, 5, 6}, {7, 8, 9, 10, 11, 12}, {13, 14, 15, 16, 17, 18}, {19, 20, 21, 22, 23, 24}, {25, 26, 27, 28, 29, 30}, {31, 32, 33, 34, 35, 36}, {37, 38, 39, 40, 41, 42}, {43, 44, 45, 46, 47, 48}, {49, 50, 51, 52, 53, 54}, {55, 56, 57, 58, 59, 60}, {61, 62, 63, 64, 65, 66}, {67, 68, 69, 70, 71, 72}, {73, 74, 75, 76, 77, 78}, {79, 80, 81, 82, 83, 84}, {85, 86, 87, 88, 89, 90}, {91, 92, 93, 94, 95, 96}, {97, 98, 99, 100, 101, 102}, {103, 104, 105, 106, 107, 108}, {109, 110, 111, 112, 113, 114}, {115, 116, 117, 118, 119, 120}, {121, 122, 123, 124, 125, 126}, {127, 128, 129, 130, 131, 132}, {133, 134, 135, 136, 137, 138}, {139, 140, 141, 142, 143, 144}, {145, 146, 147, 148, 149, 150}, {151, 152, 153, 154, 155, 156}, {157, 158, 159, 160, 161, 162}, {163, 164, 165, 166, 167, 168}, {169, 170, 171, 172, 173, 174}, {175, 176, 177, 178, 179, 180}, {181, 182, 183, 184, 185, 186}, {187, 188, 189, 190, 191, 192}, {193, 194, 195, 196, 197, 198}, {199, 200, 201, 202, 203, 204}, {205, 206, 207, 208, 209, 210}, {211, 212, 213, 214, 215, 216}, {217, 218, 219, 220, 221, 222}, {223, 224, 225, 226, 227, 228}, {229, 230, 231, 232, 233, 234}, {235, 236, 237, 238, 239, 240}, {241, 242, 243, 244, 245, 246}, {247, 248, 249, 250, 251, 252}, {253, 254, 255, 256, 257, 258}, {259, 260, 261, 262, 263, 264}, {265, 266, 267, 268, 269, 270}, {271, 272, 273, 274, 275, 276}, {277, 278, 279, 280, 281, 282}, {283, 284, 285, 286, 287, 288}, {289, 290, 291, 292, 293, 294}, {295, 296, 297, 298, 299, 300}, {301, 302, 303, 304, 305, 306}, {307, 308, 309, 310, 311, 312}, {313, 314, 315, 316, 317, 318}, {319, 320, 321, 322, 323, 324}, {325, 326, 327, 328, 329, 330}, {331, 332, 333, 334, 335, 336}, {337, 338, 339, 340, 341, 342}, {343, 344, 345, 346, 347, 348}, {349, 350, 351, 352, 353, 354}, {355, 356, 357, 358, 359, 360}, {361, 362, 363, 364, 365, 366}, {367, 368, 369, 370, 371, 372}, {373, 374, 375, 376, 377, 378}, {379, 380, 381, 382, 383, 384}, {385, 386, 387, 388, 389, 390}, {391, 392, 393, 394, 395, 396}, {397, 398, 399, 400, 401, 402}, {403, 404, 405, 406, 407, 408}, {409, 410, 411, 412, 413, 414}, {415, 416, 417, 418, 419, 420}, {421, 422, 423, 424, 425, 426}, {427, 428, 429, 430, 431, 432}, {433, 434, 435, 436, 437, 438}, {439, 440, 441, 442, 443, 444}, {445, 446, 447, 448, 449, 450}, {451, 452, 453, 454, 455, 456}, {457, 458, 459, 460, 461, 462}, {463, 464, 465, 466, 467, 468}, {469, 470, 471, 472, 473, 474}, {475, 476, 477, 478, 479, 480}, {481, 482, 483, 484, 485, 486}, {487, 488, 489, 490, 491, 492}, {493, 494, 495, 496, 497, 498}, {499, 500, 501, 502, 503, 504}, {505, 506, 507, 508, 509, 510}, {511, 512, 513, 514, 515, 516}, {517, 518, 519, 520, 521, 522}, {523, 524, 525, 526, 527, 528}, {529, 530, 531, 532, 533, 534}, {535, 536, 537, 538, 539, 540}, {541, 542, 543, 544, 545, 546}, {547, 548, 549, 550, 551, 552}, {553, 554, 555, 556, 557, 558}, {559, 560, 561, 562, 563, 564}, {565, 566, 567, 568, 569, 570}, {571, 572, 573, 574, 575, 576}, {577, 578, 579, 580, 581, 582}, {583, 584, 585, 586, 587, 588}, {589, 590, 591, 592, 593, 594}, {595, 596, 597, 598, 599, 600}];
succ =  [{97, 96, 94, 69, 68, 67, 61, 60, 58, 57, 53, 49, 48, 44, 40, 37, 28, 23}, {100, 98, 68, 67, 64, 53, 52, 48, 47, 44, 42, 37, 36, 33, 32, 28}, {97, 70, 68, 66, 60, 56, 52, 50, 49, 47, 44, 41, 31, 29}, {100, 96, 94, 68, 67, 66, 60, 49, 42, 40, 29, 23}, {97, 89, 68, 67, 60, 56, 48, 47, 45, 44, 37, 31, 28}, {91, 89, 70, 66, 58, 53, 48, 41, 40, 35, 34, 32, 31}, {100, 98, 95, 90, 86, 68, 67, 63, 58, 50, 49, 44, 42, 38, 32, 31}, {100, 98, 97, 93, 87, 67, 64, 63, 47, 44, 43, 32, 28}, {96, 94, 92, 68, 67, 66, 63, 46, 44, 42, 36, 34, 29}, {94, 91, 89, 81, 64, 61, 60, 56, 53, 48, 44, 42, 37, 31}, {99, 90, 89, 69, 68, 66, 64, 62, 48, 45, 32, 25}, {100, 94, 93, 90, 85, 68, 66, 62, 56, 53, 49, 45, 38, 36}, {99, 94, 93, 89, 85, 83, 82, 67, 48, 46, 37, 29}, {96, 95, 94, 93, 92, 90, 86, 68, 67, 66, 62, 61, 60, 49, 39, 36}, {98, 96, 91, 90, 88, 87, 82, 79, 71, 68, 67, 66, 65, 64, 54, 53, 36}, {98, 97, 96, 95, 93, 92, 91, 90, 89, 88, 83, 69, 67, 66, 65, 63, 61, 60, 59}, {97, 94, 92, 90, 89, 88, 86, 83, 65, 60, 59, 45, 44, 42}, {97, 94, 91, 89, 86, 84, 83, 69, 66, 63, 60, 59, 57, 41}, {95, 94, 91, 90, 81, 67, 66, 61, 59, 53, 31}, {98, 97, 95, 93, 92, 89, 87, 85, 84, 83, 81, 79, 61, 60, 59, 53}, {96, 94, 93, 92, 89, 83, 73, 72, 69, 67, 65, 60, 53, 50}, {95, 94, 93, 89, 86, 85, 83, 74, 66, 60, 46, 45}, {93, 90, 89, 87, 85, 84, 83, 82, 77, 73, 65, 63, 62, 59, 56}, {99, 93, 91, 90, 89, 87, 86, 85, 83, 82, 81, 78, 77, 76, 75, 73, 72, 71, 68, 65}, {97, 94, 91, 87, 86, 84, 83, 81, 78, 76, 75, 63, 47}, {97, 95, 94, 92, 91, 89, 88, 86, 80, 79, 77, 71, 70, 61, 59}, {95, 93, 92, 91, 90, 88, 86, 85, 83, 82, 81, 78, 77, 74, 73, 72, 60}, {99, 91, 90, 86, 83, 82, 80, 79, 78, 76, 73, 66, 65, 62, 59}, {98, 91, 87, 86, 79, 78, 76, 73, 69, 62, 57}, {97, 94, 88, 85, 84, 82, 80, 78, 77, 76, 75, 74, 73, 62}, {96, 93, 88, 85, 84, 83, 82, 79, 78, 77, 76, 75, 74, 73, 71}, {94, 88, 85, 84, 83, 81, 79, 75, 74, 73, 72, 60}, {94, 92, 87, 85, 82, 81, 80, 79, 78, 77, 76, 73, 72}, {85, 84, 83, 82, 81, 76, 73, 71, 59}, {97, 95, 88, 86, 83, 79, 77, 76, 75, 67}, {97, 89, 83, 81, 78, 77, 76, 59}, {95, 90, 79, 76, 71, 66, 59}, {88, 87, 84, 82, 81, 78, 77, 76, 73, 71}, {85, 84, 83, 79, 78, 76, 74, 73, 72, 71}, {98, 93, 87, 82, 79, 75, 74, 73, 72}, {90, 87, 82, 80, 79, 78, 73, 72, 71}, {93, 87, 82, 79, 77, 73, 62}, {96, 89, 83, 81, 78, 72, 65}, {80, 78, 76, 75, 74, 72, 71}, {96, 87, 84, 82, 81, 79, 73}, {90, 87, 84, 78, 76, 75, 73}, {88, 77, 73, 72, 71, 65}, {77, 71, 65, 59}, {91, 89, 71, 59}, {91, 85, 79, 76, 75, 71}, {92, 81, 80, 76, 72, 71}, {89, 80, 73, 71, 69}, {86, 77, 76, 75, 74}, {85, 80, 75, 74, 73}, {94, 86, 83, 77, 73}, {98, 92, 80, 74}, {95, 88, 80, 77}, {92, 81, 79, 72}, {75, 74, 72}, {80, 76, 71}, {82, 78, 73}, {72, 71}, {80, 79}, {92, 78}, {74}, {77}, {78}, {84}, {81}, {75}, {}, {}, {}, {}, {}, {}, {}, {}, {}, {}, {}, {}, {}, {}, {}, {}, {}, {}, {}, {}, {}, {}, {}, {}, {}, {}, {}, {}, {}, {}];
n_opt = 600;
dur = [2, 4, 6, 10, 13, 20, 8, 9, 10, 15, 16, 19, 1, 2, 9, 10, 12, 18, 4, 6, 7, 8, 18, 20, 1, 3, 6, 7, 14, 20, 2, 3, 5, 6, 16, 20, 9, 10, 11, 12, 14, 19, 1, 2, 3, 10, 14, 19, 5, 6, 8, 12, 14, 20, 2, 3, 4, 5, 9, 15, 1, 2, 6, 17, 19, 20, 2, 3, 8, 10, 15, 20, 2, 6, 9, 14, 15, 17, 1, 2, 12, 13, 14, 15, 3, 8, 10, 11, 13, 19, 1, 8, 10, 11, 15, 20, 5, 7, 9, 12, 16, 18, 2, 5, 10, 13, 14, 15, 2, 7, 8, 11, 14, 17, 7, 8, 9, 17, 18, 19, 2, 3, 8, 9, 10, 18, 5, 11, 14, 15, 18, 19, 3, 8, 12, 13, 17, 18, 3, 5, 7, 12, 19, 20, 1, 4, 10, 11, 14, 17, 3, 8, 9, 12, 16, 17, 1, 6, 7, 13, 15, 16, 3, 8, 9, 16, 17, 19, 10, 11, 12, 13, 18, 20, 4, 7, 8, 10, 11, 20, 6, 11, 14, 15, 16, 17, 6, 8, 9, 12, 16, 19, 1, 2, 3, 5, 7, 15, 1, 4, 7, 15, 16, 20, 3, 4, 5, 6, 7, 8, 1, 6, 6, 7, 8, 14, 1, 3, 5, 6, 14, 19, 5, 6, 9, 16, 19, 20, 1, 7, 10, 13, 14, 20, 4, 6, 7, 9, 12, 13, 6, 7, 12, 13, 14, 16, 1, 7, 8, 10, 11, 18, 3, 4, 5, 11, 14, 15, 5, 6, 7, 10, 12, 18, 1, 4, 8, 16, 17, 19, 6, 8, 9, 12, 15, 20, 3, 5, 8, 10, 15, 19, 8, 9, 11, 12, 14, 18, 2, 7, 8, 9, 14, 19, 6, 7, 10, 14, 15, 19, 6, 7, 10, 13, 17, 19, 5, 8, 10, 11, 17, 18, 1, 2, 7, 8, 17, 19, 3, 5, 6, 10, 14, 18, 10, 11, 12, 13, 17, 18, 8, 15, 16, 17, 18, 20, 4, 5, 7, 8, 12, 16, 3, 4, 10, 13, 14, 20, 2, 9, 10, 12, 16, 17, 1, 2, 3, 13, 16, 17, 1, 2, 5, 6, 8, 10, 4, 5, 9, 10, 15, 17, 6, 8, 9, 14, 15, 17, 7, 8, 13, 14, 16, 19, 3, 4, 9, 18, 19, 20, 2, 8, 9, 18, 19, 20, 3, 6, 9, 13, 18, 19, 2, 3, 6, 13, 14, 15, 2, 6, 7, 9, 14, 16, 2, 3, 9, 11, 13, 19, 2, 3, 5, 8, 12, 13, 2, 6, 9, 10, 16, 18, 1, 7, 13, 14, 18, 19, 2, 4, 12, 13, 15, 19, 4, 5, 6, 7, 9, 10, 8, 9, 10, 11, 14, 19, 5, 6, 7, 11, 12, 17, 1, 3, 4, 7, 8, 16, 6, 8, 13, 15, 16, 17, 1, 2, 7, 9, 10, 15, 2, 6, 7, 8, 17, 18, 1, 2, 5, 7, 15, 19, 7, 8, 9, 10, 15, 17, 1, 2, 4, 5, 9, 19, 7, 9, 14, 18, 19, 20, 6, 9, 11, 12, 18, 20, 1, 5, 9, 13, 16, 17, 5, 6, 7, 12, 15, 19, 3, 7, 8, 9, 19, 20, 1, 2, 3, 10, 14, 18, 4, 5, 15, 17, 18, 20, 2, 3, 10, 13, 18, 19, 4, 6, 7, 8, 13, 17, 1, 13, 15, 16, 17, 20, 1, 5, 12, 14, 15, 16, 1, 8, 13, 14, 15, 18, 2, 7, 8, 11, 12, 17, 2, 4, 8, 14, 15, 20, 1, 4, 6, 7, 15, 16, 2, 7, 12, 13, 14, 20];
rreq = [|5, 4, 4, 4, 3, 3, 2, 2, 2, 2, 2, 2, 4, 4, 4, 3, 2, 2, 4, 4, 4, 3, 3, 3, 3, 3, 3, 3, 3, 3, 3, 3, 3, 3, 3, 3, 3, 3, 3, 3, 2, 2, 5, 3, 3, 2, 1, 1, 5, 4, 4, 4, 3, 3, 3, 2, 2, 2, 2, 2, 3, 3, 2, 2, 2, 1, 4, 4, 4, 4, 3, 3, 4, 4, 4, 4, 4, 4, 3, 2, 2, 2, 1, 1, 4, 3, 2, 2, 1, 1, 3, 3, 3, 3, 3, 3, 4, 4, 4, 4, 4, 4, 3, 3, 3, 3, 3, 3, 1, 1, 1, 1, 1, 1, 4, 4, 4, 3, 2, 2, 4, 4, 4, 4, 3, 3, 3, 2, 2, 1, 1, 1, 2, 2, 2, 2, 2, 2, 5, 4, 3, 3, 2, 2, 3, 3, 2, 2, 1, 1, 3, 2, 2, 2, 2, 2, 1, 1, 1, 1, 1, 1, 4, 4, 4, 4, 4, 4, 5, 4, 4, 3, 2, 2, 3, 3, 3, 3, 3, 3, 5, 4, 4, 4, 3, 3, 5, 4, 4, 3, 3, 3, 3, 3, 3, 3, 3, 3, 4, 4, 4, 3, 3, 3, 5, 5, 5, 5, 5, 5, 5, 4, 3, 3, 1, 1, 4, 3, 3, 3, 3, 3, 4, 3, 3, 2, 1, 1, 2, 1, 1, 1, 1, 1, 4, 4, 4, 4, 4, 4, 2, 2, 2, 2, 2, 2, 4, 3, 3, 3, 3, 3, 5, 4, 4, 3, 3, 3, 2, 2, 2, 2, 2, 2, 5, 4, 4, 4, 4, 4, 4, 3, 3, 3, 3, 3, 4, 4, 4, 3, 2, 2, 2, 2, 2, 1, 1, 1, 4, 3, 3, 3, 3, 3, 5, 4, 4, 4, 4, 4, 1, 1, 1, 1, 1, 1, 5, 4, 3, 3, 2, 2, 2, 2, 2, 2, 2, 2, 3, 3, 2, 2, 2, 1, 2, 2, 2, 2, 2, 2, 5, 4, 3, 3, 2, 1, 2, 2, 2, 2, 1, 1, 3, 3, 2, 2, 1, 1, 5, 5, 5, 5, 5, 5, 2, 2, 2, 2, 2, 2, 4, 4, 4, 4, 4, 4, 4, 3, 3, 2, 2, 2, 2, 2, 2, 1, 1, 1, 4, 3, 3, 3, 3, 3, 2, 2, 2, 1, 1, 1, 2, 2, 2, 2, 1, 1, 4, 4, 4, 4, 4, 4, 4, 3, 3, 3, 1, 1, 3, 2, 2, 2, 1, 1, 4, 4, 4, 4, 3, 3, 4, 3, 3, 3, 3, 3, 2, 2, 2, 2, 2, 2, 4, 4, 4, 3, 3, 3, 4, 3, 3, 2, 2, 2, 3, 3, 3, 3, 3, 3, 5, 4, 4, 3, 3, 3, 4, 4, 3, 3, 2, 1, 4, 3, 3, 2, 1, 1, 2, 1, 1, 1, 1, 1, 5, 4, 3, 3, 2, 2, 3, 3, 3, 3, 3, 3, 4, 3, 3, 2, 2, 1, 2, 1, 1, 1, 1, 1, 3, 2, 2, 2, 2, 2, 2, 2, 2, 2, 1, 1, 3, 3, 3, 3, 3, 3, 5, 5, 5, 5, 5, 5, 2, 2, 2, 1, 1, 1, 2, 1, 1, 1, 1, 1, 1, 1, 1, 1, 1, 1, 3, 3, 3, 3, 3, 3, 4, 4, 4, 4, 3, 3, 5, 4, 4, 3, 2, 2, 5, 4, 4, 3, 3, 3, 2, 2, 2, 2, 2, 2, 4, 3, 2, 2, 2, 1, 4, 3, 3, 3, 3, 3, 5, 4, 4, 3, 3, 3, 4, 3, 2, 2, 1, 1, 1, 1, 1, 1, 1, 1
 |4, 3, 3, 2, 1, 1, 4, 4, 4, 4, 4, 4, 5, 3, 3, 2, 1, 1, 3, 2, 2, 2, 2, 2, 5, 5, 5, 5, 5, 5, 3, 3, 3, 2, 2, 2, 1, 1, 1, 1, 1, 1, 5, 4, 4, 4, 3, 3, 5, 4, 3, 3, 3, 2, 5, 4, 3, 3, 1, 1, 4, 3, 3, 3, 3, 3, 4, 3, 2, 2, 2, 1, 2, 2, 2, 2, 2, 2, 4, 4, 4, 4, 4, 4, 4, 3, 2, 2, 2, 1, 4, 4, 3, 3, 2, 2, 5, 3, 3, 2, 1, 1, 4, 4, 4, 3, 3, 3, 4, 4, 4, 4, 4, 4, 1, 1, 1, 1, 1, 1, 2, 1, 1, 1, 1, 1, 4, 3, 3, 2, 2, 1, 4, 4, 3, 3, 2, 1, 4, 4, 3, 2, 1, 1, 1, 1, 1, 1, 1, 1, 2, 1, 1, 1, 1, 1, 3, 2, 2, 2, 2, 2, 1, 1, 1, 1, 1, 1, 5, 5, 5, 5, 5, 5, 5, 5, 5, 5, 5, 5, 3, 3, 3, 3, 3, 3, 5, 4, 4, 4, 4, 4, 4, 3, 3, 2, 2, 1, 1, 1, 1, 1, 1, 1, 4, 3, 3, 3, 3, 3, 1, 1, 1, 1, 1, 1, 4, 3, 3, 3, 2, 2, 2, 2, 2, 1, 1, 1, 4, 4, 4, 4, 4, 4, 3, 2, 2, 1, 1, 1, 2, 2, 2, 2, 2, 2, 4, 3, 3, 3, 3, 3, 3, 3, 3, 2, 2, 2, 3, 2, 2, 2, 2, 2, 5, 4, 3, 3, 2, 2, 4, 4, 3, 2, 1, 1, 3, 3, 3, 3, 3, 3, 4, 3, 3, 3, 3, 3, 5, 4, 4, 3, 3, 2, 4, 3, 3, 2, 2, 2, 3, 2, 2, 2, 2, 2, 3, 3, 3, 3, 3, 3, 4, 4, 4, 4, 4, 4, 4, 3, 3, 3, 3, 3, 4, 3, 2, 2, 2, 1, 4, 3, 3, 3, 2, 2, 3, 2, 2, 2, 2, 2, 2, 1, 1, 1, 1, 1, 4, 3, 3, 2, 1, 1, 3, 3, 3, 2, 1, 1, 4, 4, 4, 4, 4, 4, 4, 3, 3, 3, 1, 1, 5, 4, 3, 2, 1, 1, 3, 3, 3, 3, 3, 3, 3, 2, 2, 2, 2, 2, 4, 3, 2, 2, 1, 1, 5, 4, 4, 4, 4, 4, 3, 3, 3, 2, 1, 1, 4, 3, 2, 2, 2, 1, 3, 3, 3, 3, 3, 3, 3, 2, 2, 2, 2, 2, 4, 3, 3, 2, 2, 2, 5, 4, 4, 4, 4, 4, 5, 4, 4, 3, 2, 2, 5, 4, 3, 3, 3, 2, 1, 1, 1, 1, 1, 1, 2, 2, 2, 1, 1, 1, 4, 3, 3, 2, 1, 1, 2, 2, 2, 2, 2, 2, 2, 2, 2, 2, 2, 2, 5, 4, 3, 3, 2, 2, 3, 3, 3, 2, 2, 2, 5, 4, 4, 4, 4, 4, 3, 3, 3, 3, 3, 3, 3, 3, 3, 3, 3, 3, 5, 4, 4, 3, 3, 2, 4, 3, 3, 2, 2, 2, 3, 2, 2, 2, 2, 2, 4, 4, 4, 3, 2, 2, 5, 4, 4, 3, 3, 3, 5, 4, 4, 3, 2, 2, 2, 2, 2, 2, 1, 1, 3, 3, 3, 2, 2, 2, 2, 1, 1, 1, 1, 1, 4, 3, 2, 2, 2, 1, 3, 2, 2, 2, 2, 2, 5, 4, 4, 3, 3, 3, 3, 3, 3, 3, 3, 3, 2, 2, 2, 2, 2, 2, 4, 3, 3, 3, 3, 3
 |5, 5, 5, 5, 5, 5, 16, 13, 13, 9, 7, 7, 19, 14, 13, 10, 8, 3, 17, 15, 13, 12, 11, 9, 12, 12, 10, 9, 9, 7, 13, 12, 10, 10, 9, 8, 18, 13, 10, 10, 6, 5, 16, 15, 14, 10, 9, 5, 16, 14, 10, 8, 6, 2, 16, 15, 13, 13, 11, 9, 18, 16, 16, 15, 15, 14, 11, 11, 11, 11, 11, 11, 15, 14, 14, 12, 11, 11, 16, 15, 15, 15, 15, 15, 11, 10, 8, 8, 7, 5, 16, 16, 11, 7, 4, 2, 10, 10, 10, 10, 9, 9, 11, 10, 10, 8, 7, 6, 19, 19, 18, 16, 16, 15, 11, 11, 11, 10, 10, 9, 5, 5, 5, 5, 5, 5, 17, 15, 14, 9, 8, 5, 14, 13, 12, 9, 7, 7, 12, 9, 8, 7, 7, 6, 9, 9, 9, 9, 9, 9, 15, 14, 13, 10, 9, 9, 14, 14, 13, 13, 13, 12, 3, 3, 2, 2, 2, 1, 14, 14, 14, 14, 14, 14, 15, 15, 13, 10, 9, 7, 15, 10, 9, 6, 6, 2, 4, 4, 4, 3, 2, 2, 13, 13, 13, 12, 12, 12, 20, 17, 17, 15, 13, 12, 15, 14, 13, 11, 10, 10, 3, 3, 3, 3, 2, 2, 16, 16, 14, 10, 8, 5, 10, 10, 9, 9, 9, 8, 19, 17, 15, 10, 9, 7, 9, 8, 7, 6, 5, 5, 4, 4, 4, 3, 3, 3, 8, 7, 7, 7, 5, 5, 17, 15, 12, 7, 5, 1, 8, 7, 6, 5, 4, 4, 19, 17, 17, 14, 13, 12, 15, 15, 13, 12, 12, 11, 12, 11, 11, 11, 11, 11, 18, 17, 16, 15, 15, 14, 8, 7, 7, 7, 7, 7, 7, 6, 6, 6, 6, 6, 18, 17, 16, 15, 13, 13, 18, 17, 12, 11, 10, 6, 19, 17, 12, 11, 10, 6, 9, 9, 7, 4, 2, 1, 6, 6, 6, 6, 6, 6, 17, 15, 14, 13, 10, 8, 10, 8, 6, 5, 4, 3, 14, 11, 11, 9, 8, 7, 17, 17, 16, 16, 16, 15, 17, 15, 13, 10, 7, 3, 13, 12, 11, 10, 9, 7, 15, 14, 11, 11, 7, 5, 7, 7, 7, 7, 7, 7, 19, 14, 12, 12, 6, 5, 13, 13, 12, 10, 8, 8, 14, 14, 13, 13, 13, 12, 9, 8, 6, 5, 5, 3, 12, 8, 7, 5, 4, 2, 12, 12, 12, 12, 12, 12, 19, 18, 18, 17, 16, 16, 13, 11, 10, 10, 9, 8, 17, 16, 16, 16, 16, 16, 18, 17, 16, 15, 15, 13, 13, 13, 13, 13, 13, 13, 11, 11, 11, 11, 11, 11, 13, 13, 13, 13, 13, 13, 12, 11, 10, 8, 7, 6, 9, 9, 9, 9, 9, 9, 14, 11, 10, 7, 4, 3, 3, 2, 2, 2, 2, 2, 15, 14, 13, 12, 12, 11, 15, 12, 9, 8, 6, 5, 17, 15, 11, 9, 7, 4, 18, 14, 11, 10, 5, 4, 16, 15, 15, 14, 12, 12, 18, 14, 13, 11, 9, 7, 10, 10, 10, 10, 10, 10, 4, 4, 3, 2, 1, 1, 15, 15, 15, 14, 14, 14, 16, 15, 12, 12, 11, 8, 16, 15, 14, 14, 14, 13, 7, 6, 4, 3, 3, 1, 15, 13, 10, 10, 8, 6, 16, 14, 13, 12, 11, 10, 9, 8, 8, 8, 8, 8, 13, 10, 10, 6, 3, 1, 13, 11, 9, 8, 7, 5, 18, 15, 14, 13, 13, 11, 10, 9, 9, 9, 8, 8, 5, 5, 5, 4, 3, 3
 |9, 9, 8, 8, 6, 6, 2, 2, 2, 2, 2, 2, 16, 15, 14, 14, 13, 12, 9, 9, 9, 8, 8, 7, 20, 18, 16, 15, 14, 12, 17, 15, 15, 15, 14, 13, 16, 14, 11, 10, 6, 6, 9, 8, 8, 8, 6, 6, 10, 10, 10, 9, 9, 9, 16, 15, 14, 14, 13, 11, 9, 8, 8, 7, 7, 6, 14, 13, 13, 12, 12, 12, 15, 14, 13, 13, 12, 11, 15, 14, 13, 12, 11, 10, 19, 16, 13, 12, 10, 7, 3, 3, 2, 2, 2, 1, 11, 11, 11, 10, 10, 10, 18, 16, 14, 12, 12, 10, 19, 19, 19, 19, 19, 19, 7, 6, 6, 6, 6, 6, 14, 13, 12, 11, 9, 9, 13, 11, 10, 10, 8, 8, 15, 13, 10, 9, 5, 5, 18, 18, 16, 15, 13, 11, 18, 16, 11, 10, 7, 3, 17, 17, 17, 16, 16, 16, 4, 4, 4, 3, 3, 2, 19, 14, 12, 12, 10, 8, 18, 18, 18, 18, 18, 18, 18, 13, 12, 9, 6, 2, 15, 13, 11, 7, 5, 3, 14, 13, 12, 11, 11, 10, 17, 17, 17, 16, 16, 16, 19, 18, 17, 17, 15, 15, 17, 17, 17, 16, 15, 15, 6, 4, 3, 3, 2, 1, 15, 14, 13, 8, 5, 5, 14, 10, 8, 7, 3, 3, 15, 14, 10, 8, 7, 4, 3, 3, 3, 2, 2, 2, 5, 4, 4, 4, 4, 4, 6, 6, 6, 5, 5, 5, 16, 13, 12, 11, 11, 9, 16, 16, 15, 14, 13, 13, 16, 15, 14, 13, 11, 10, 16, 15, 11, 6, 6, 1, 18, 14, 13, 11, 11, 8, 16, 16, 14, 11, 8, 8, 18, 18, 17, 14, 13, 13, 12, 10, 9, 5, 5, 1, 19, 19, 19, 19, 19, 19, 16, 16, 15, 15, 15, 14, 12, 11, 8, 8, 6, 3, 7, 5, 4, 4, 2, 1, 15, 11, 10, 9, 4, 2, 6, 4, 4, 3, 3, 2, 15, 14, 14, 11, 11, 9, 17, 15, 14, 14, 12, 10, 11, 10, 9, 7, 7, 6, 8, 7, 7, 6, 5, 5, 2, 2, 2, 2, 2, 2, 20, 19, 17, 17, 15, 14, 6, 6, 6, 6, 5, 5, 17, 15, 14, 11, 8, 8, 9, 8, 7, 4, 4, 2, 16, 14, 12, 11, 8, 7, 15, 11, 9, 8, 6, 2, 11, 10, 7, 7, 4, 2, 7, 7, 7, 6, 6, 6, 19, 19, 19, 19, 18, 18, 17, 13, 12, 9, 8, 7, 14, 14, 14, 14, 13, 13, 10, 10, 8, 7, 6, 6, 14, 14, 14, 13, 13, 12, 18, 18, 17, 15, 12, 11, 16, 16, 16, 15, 15, 14, 14, 13, 12, 10, 6, 5, 7, 6, 5, 4, 4, 3, 4, 4, 4, 3, 3, 2, 14, 13, 12, 12, 10, 9, 7, 6, 5, 4, 4, 3, 11, 10, 8, 8, 7, 5, 11, 11, 11, 11, 11, 11, 11, 9, 8, 7, 5, 3, 18, 17, 15, 14, 13, 12, 7, 7, 7, 7, 6, 6, 17, 13, 11, 7, 4, 2, 13, 9, 8, 7, 3, 3, 17, 17, 17, 17, 17, 17, 6, 6, 6, 6, 5, 5, 11, 10, 9, 9, 8, 8, 12, 10, 8, 6, 3, 3, 8, 7, 6, 5, 4, 4, 12, 12, 11, 9, 8, 7, 14, 12, 10, 10, 6, 5, 17, 17, 16, 16, 16, 15, 3, 3, 3, 3, 3, 3, 15, 14, 14, 14, 14, 14, 18, 15, 14, 13, 12, 11, 15, 15, 13, 10, 5, 3
 |15, 15, 14, 12, 12, 10, 12, 9, 7, 7, 4, 3, 9, 9, 9, 9, 9, 9, 19, 17, 16, 16, 15, 14, 20, 17, 12, 12, 9, 7, 11, 10, 10, 9, 7, 7, 19, 18, 18, 18, 18, 18, 15, 13, 11, 7, 5, 5, 18, 18, 14, 12, 10, 9, 11, 10, 10, 9, 7, 7, 16, 14, 12, 12, 10, 7, 12, 11, 8, 7, 5, 1, 13, 12, 10, 8, 4, 4, 4, 3, 3, 3, 2, 2, 19, 15, 12, 10, 6, 4, 9, 8, 7, 6, 5, 4, 18, 16, 12, 9, 5, 2, 19, 19, 19, 19, 18, 18, 13, 10, 9, 6, 6, 4, 18, 15, 13, 11, 10, 7, 18, 16, 16, 15, 14, 13, 15, 15, 15, 15, 15, 15, 15, 13, 12, 11, 10, 9, 6, 6, 5, 5, 5, 4, 7, 6, 5, 5, 4, 2, 15, 14, 12, 9, 6, 6, 20, 18, 15, 14, 12, 10, 11, 10, 9, 8, 7, 6, 17, 14, 13, 11, 11, 10, 6, 6, 6, 6, 6, 6, 20, 16, 13, 9, 8, 4, 17, 12, 12, 8, 4, 4, 12, 11, 10, 10, 10, 9, 11, 9, 7, 6, 5, 4, 10, 10, 10, 10, 10, 10, 4, 3, 3, 3, 3, 3, 17, 16, 15, 14, 13, 13, 12, 12, 11, 10, 10, 9, 13, 12, 12, 11, 9, 9, 16, 13, 11, 10, 8, 6, 18, 18, 18, 18, 17, 17, 16, 16, 16, 16, 16, 16, 17, 15, 13, 10, 7, 6, 16, 13, 12, 10, 8, 7, 19, 15, 15, 13, 12, 9, 11, 10, 9, 8, 8, 7, 19, 16, 15, 15, 12, 12, 7, 7, 5, 4, 3, 3, 9, 7, 6, 6, 4, 3, 19, 19, 18, 17, 15, 15, 16, 15, 15, 12, 11, 10, 15, 13, 12, 11, 10, 10, 18, 18, 17, 15, 13, 11, 17, 15, 11, 8, 5, 5, 18, 17, 15, 15, 13, 13, 17, 14, 12, 9, 7, 7, 18, 16, 15, 13, 10, 8, 15, 14, 13, 13, 13, 12, 11, 10, 9, 8, 8, 7, 2, 2, 2, 2, 1, 1, 14, 10, 9, 8, 5, 2, 14, 12, 11, 10, 9, 9, 14, 12, 12, 11, 11, 10, 20, 18, 17, 16, 15, 14, 10, 9, 7, 7, 5, 5, 16, 15, 15, 15, 15, 15, 12, 9, 8, 7, 5, 3, 17, 15, 14, 14, 13, 12, 9, 9, 9, 8, 8, 8, 2, 2, 2, 2, 2, 2, 18, 15, 13, 12, 7, 6, 20, 16, 13, 11, 10, 5, 17, 14, 13, 12, 9, 6, 13, 12, 12, 12, 11, 11, 16, 14, 13, 9, 9, 4, 15, 14, 14, 13, 12, 12, 19, 13, 13, 11, 8, 4, 10, 7, 7, 5, 5, 3, 15, 12, 11, 9, 9, 8, 5, 5, 5, 5, 5, 5, 11, 10, 9, 9, 7, 7, 12, 11, 11, 11, 11, 11, 18, 17, 16, 14, 14, 13, 15, 15, 15, 14, 14, 14, 19, 19, 19, 19, 19, 19, 14, 13, 13, 13, 12, 12, 16, 16, 16, 16, 15, 15, 9, 8, 8, 7, 7, 7, 20, 16, 14, 12, 10, 8, 13, 12, 12, 9, 9, 8, 13, 11, 10, 7, 4, 3, 13, 11, 8, 5, 3, 1, 11, 9, 7, 5, 4, 3, 14, 11, 11, 8, 8, 7, 14, 13, 12, 11, 9, 9, 14, 10, 9, 8, 4, 2, 8, 8, 8, 7, 7, 7, 15, 15, 15, 15, 15, 15, 12, 10, 10, 8, 8, 7, 17, 15, 12, 9, 8, 6
 |14, 13, 13, 13, 13, 13, 17, 12, 9, 9, 5, 3, 6, 5, 5, 4, 3, 3, 11, 8, 7, 6, 3, 3, 18, 17, 17, 17, 17, 17, 18, 14, 13, 10, 6, 5, 12, 10, 10, 8, 7, 7, 18, 13, 13, 9, 9, 6, 16, 15, 13, 11, 8, 6, 12, 10, 9, 6, 6, 2, 10, 9, 9, 8, 7, 7, 13, 12, 12, 11, 11, 11, 19, 16, 16, 14, 14, 13, 18, 12, 11, 7, 3, 3, 14, 14, 13, 13, 12, 11, 8, 7, 6, 6, 5, 3, 8, 8, 8, 8, 8, 8, 15, 14, 13, 11, 10, 8, 8, 7, 6, 4, 3, 2, 17, 16, 16, 16, 16, 16, 15, 14, 13, 11, 10, 10, 14, 14, 14, 14, 14, 14, 2, 2, 2, 2, 2, 2, 7, 6, 5, 5, 5, 4, 17, 14, 13, 12, 10, 7, 18, 17, 17, 16, 16, 15, 16, 16, 13, 10, 10, 8, 13, 12, 9, 8, 8, 5, 10, 9, 8, 7, 5, 3, 6, 6, 6, 5, 5, 4, 17, 15, 15, 14, 13, 12, 19, 17, 16, 15, 14, 14, 10, 10, 9, 9, 8, 8, 11, 9, 7, 7, 6, 4, 14, 10, 9, 8, 5, 3, 18, 17, 18, 17, 15, 15, 15, 14, 11, 10, 7, 5, 12, 11, 10, 10, 9, 7, 10, 9, 6, 5, 4, 3, 10, 10, 9, 8, 7, 7, 9, 8, 7, 7, 7, 6, 5, 4, 3, 3, 3, 2, 6, 5, 5, 4, 3, 3, 12, 9, 9, 6, 4, 3, 6, 6, 4, 3, 3, 2, 6, 6, 5, 5, 3, 3, 17, 13, 11, 7, 5, 3, 8, 7, 7, 6, 5, 5, 12, 11, 10, 10, 9, 8, 17, 15, 10, 9, 4, 3, 9, 7, 7, 6, 5, 4, 18, 13, 10, 10, 7, 5, 5, 5, 4, 4, 4, 3, 5, 3, 3, 3, 1, 1, 16, 16, 13, 13, 11, 9, 11, 11, 10, 9, 9, 8, 17, 17, 13, 11, 6, 5, 14, 12, 10, 6, 6, 2, 12, 9, 9, 8, 6, 5, 4, 3, 3, 3, 2, 2, 17, 14, 10, 8, 5, 3, 19, 14, 12, 9, 8, 6, 8, 8, 8, 8, 8, 8, 13, 11, 9, 9, 7, 4, 14, 11, 8, 7, 4, 2, 9, 8, 7, 6, 5, 5, 1, 1, 1, 1, 1, 1, 17, 17, 13, 10, 8, 5, 10, 9, 9, 8, 8, 8, 18, 16, 15, 14, 11, 10, 10, 9, 8, 8, 8, 7, 13, 12, 11, 10, 9, 9, 19, 18, 16, 14, 13, 10, 2, 2, 1, 2, 1, 1, 15, 12, 11, 11, 9, 7, 18, 18, 17, 16, 16, 15, 15, 15, 13, 13, 11, 11, 8, 7, 7, 6, 6, 5, 4, 3, 3, 3, 3, 3, 16, 16, 16, 15, 16, 16, 4, 3, 2, 2, 2, 1, 17, 15, 13, 13, 10, 9, 7, 7, 5, 4, 4, 2, 10, 10, 9, 9, 8, 8, 14, 13, 13, 12, 11, 9, 13, 11, 11, 9, 8, 8, 13, 9, 9, 5, 5, 1, 18, 15, 15, 13, 9, 8, 16, 13, 13, 10, 9, 6, 12, 11, 8, 7, 4, 3, 9, 8, 8, 8, 6, 6, 9, 9, 8, 8, 7, 7, 13, 11, 10, 9, 8, 8, 10, 10, 8, 7, 6, 4, 20, 17, 12, 10, 5, 5, 18, 14, 14, 12, 8, 5, 8, 8, 8, 7, 7, 7, 7, 6, 6, 5, 3, 2, 7, 7, 6, 6, 5, 4, 18, 14, 12, 12, 8, 8|];